feasible solution found by trivial heuristic after 0.1 seconds, objective value 0.000000e+00
presolving:
(round 1, fast)       5893 del vars, 4967 del conss, 0 add conss, 1347 chg bounds, 0 chg sides, 0 chg coeffs, 0 upgd conss, 0 impls, 27346 clqs
(round 2, fast)       7240 del vars, 4967 del conss, 0 add conss, 1347 chg bounds, 0 chg sides, 0 chg coeffs, 0 upgd conss, 0 impls, 27346 clqs
   (0.4s) running MILP presolver
   (0.5s) MILP presolver found nothing
(round 3, exhaustive) 7240 del vars, 5012 del conss, 0 add conss, 1347 chg bounds, 45 chg sides, 0 chg coeffs, 0 upgd conss, 0 impls, 27346 clqs
(round 4, exhaustive) 7240 del vars, 5012 del conss, 0 add conss, 1347 chg bounds, 45 chg sides, 0 chg coeffs, 27301 upgd conss, 0 impls, 27346 clqs
   (1.0s) probing: 51/128 (39.8%) - 0 fixings, 0 aggregations, 0 implications, 0 bound changes
   (1.0s) probing aborted: 50/50 successive totally useless probings
   (1.1s) symmetry computation started: requiring (bin +, int -, cont +), (fixed: bin -, int +, cont -)
   (1.2s) no symmetry present
presolving (5 rounds: 5 fast, 3 medium, 3 exhaustive):
 7240 deleted vars, 5012 deleted constraints, 0 added constraints, 1347 tightened bounds, 0 added holes, 45 changed sides, 0 changed coefficients
 0 implications, 27346 cliques
presolved problem has 128 variables (128 bin, 0 int, 0 impl, 0 cont) and 27301 constraints
  27301 constraints of type <setppc>
transformed objective value is always integral (scale: 1)
Presolving Time: 1.12
transformed 1/2 original solutions to the transformed problem space

 time | node  | left  |LP iter|LP it/n|mem/heur|mdpt |vars |cons |rows |cuts |sepa|confs|strbr|  dualbound   | primalbound  |  gap   | compl. 
p 1.3s|     1 |     0 |     0 |     - |  clique|   0 | 128 |  27k|  27k|   0 |  0 |   0 |   0 | 6.216000e+03 | 4.410000e+02 |1309.52%| unknown
p 1.4s|     1 |     0 |    15 |     - | vbounds|   0 | 128 |  27k|  27k|   0 |  0 |   0 |   0 | 6.216000e+03 | 5.470000e+02 |1036.38%| unknown
  2.9s|     1 |     0 |  1463 |     - |   162M |   0 | 128 |  27k|  27k|   0 |  0 |   0 |   0 | 9.291641e+02 | 5.470000e+02 |  69.87%| unknown
  3.3s|     1 |     0 |  1644 |     - |   166M |   0 | 128 |  27k|  27k|   1 |  1 |   0 |   0 | 9.262210e+02 | 5.470000e+02 |  69.33%| unknown
  3.5s|     1 |     0 |  1802 |     - |   170M |   0 | 128 |  27k|  27k|   2 |  2 |   0 |   0 | 9.247490e+02 | 5.470000e+02 |  69.06%| unknown
  3.9s|     1 |     0 |  2042 |     - |   174M |   0 | 128 |  27k|  27k|   3 |  3 |   0 |   0 | 9.228078e+02 | 5.470000e+02 |  68.70%| unknown
  4.2s|     1 |     0 |  2189 |     - |   177M |   0 | 128 |  27k|  27k|   4 |  4 |   0 |   0 | 9.218779e+02 | 5.470000e+02 |  68.53%| unknown
  4.5s|     1 |     0 |  2389 |     - |   181M |   0 | 128 |  27k|  27k|   5 |  5 |   0 |   0 | 9.210881e+02 | 5.470000e+02 |  68.39%| unknown
  4.8s|     1 |     0 |  2586 |     - |   185M |   0 | 128 |  27k|  27k|   6 |  6 |   0 |   0 | 9.206447e+02 | 5.470000e+02 |  68.31%| unknown
  5.1s|     1 |     0 |  2763 |     - |   188M |   0 | 128 |  27k|  27k|   7 |  7 |   0 |   0 | 9.202776e+02 | 5.470000e+02 |  68.24%| unknown
  5.3s|     1 |     0 |  2922 |     - |   192M |   0 | 128 |  27k|  27k|   8 |  8 |   0 |   0 | 9.200777e+02 | 5.470000e+02 |  68.20%| unknown
  5.6s|     1 |     0 |  3085 |     - |   194M |   0 | 128 |  27k|  27k|   9 |  9 |   0 |   0 | 9.199158e+02 | 5.470000e+02 |  68.17%| unknown
  5.9s|     1 |     0 |  3270 |     - |   199M |   0 | 128 |  27k|  27k|  10 | 10 |   0 |   0 | 9.197811e+02 | 5.470000e+02 |  68.15%| unknown
  6.1s|     1 |     0 |  3348 |     - |   202M |   0 | 128 |  27k|  27k|  11 | 11 |   0 |   0 | 9.197549e+02 | 5.470000e+02 |  68.15%| unknown
  6.2s|     1 |     0 |  3397 |     - |   205M |   0 | 128 |  27k|  27k|  12 | 12 |   0 |   0 | 9.197250e+02 | 5.470000e+02 |  68.14%| unknown
 time | node  | left  |LP iter|LP it/n|mem/heur|mdpt |vars |cons |rows |cuts |sepa|confs|strbr|  dualbound   | primalbound  |  gap   | compl. 
  6.3s|     1 |     0 |  3464 |     - |   208M |   0 | 128 |  27k|  27k|  13 | 13 |   0 |   0 | 9.196822e+02 | 5.470000e+02 |  68.13%| unknown
  6.4s|     1 |     0 |  3497 |     - |   211M |   0 | 128 |  27k|  27k|  14 | 14 |   0 |   0 | 9.196660e+02 | 5.470000e+02 |  68.13%| unknown
  6.6s|     1 |     0 |  3594 |     - |   214M |   0 | 128 |  27k|  27k|  16 | 15 |   0 |   0 | 9.195423e+02 | 5.470000e+02 |  68.11%| unknown
  6.7s|     1 |     0 |  3621 |     - |   217M |   0 | 128 |  27k|  27k|  17 | 16 |   0 |   0 | 9.195280e+02 | 5.470000e+02 |  68.10%| unknown
  6.8s|     1 |     0 |  3644 |     - |   219M |   0 | 128 |  27k|  27k|  18 | 17 |   0 |   0 | 9.195166e+02 | 5.470000e+02 |  68.10%| unknown
  6.9s|     1 |     0 |  3702 |     - |   222M |   0 | 128 |  27k|  27k|  19 | 18 |   0 |   0 | 9.194856e+02 | 5.470000e+02 |  68.10%| unknown
  7.0s|     1 |     0 |  3764 |     - |   225M |   0 | 128 |  27k|  27k|  20 | 19 |   0 |   0 | 9.194527e+02 | 5.470000e+02 |  68.09%| unknown
  7.1s|     1 |     0 |  3786 |     - |   228M |   0 | 128 |  27k|  27k|  21 | 20 |   0 |   0 | 9.194455e+02 | 5.470000e+02 |  68.09%| unknown
  7.2s|     1 |     0 |  3802 |     - |   228M |   0 | 128 |  27k|  27k|  22 | 21 |   0 |   0 | 9.194403e+02 | 5.470000e+02 |  68.09%| unknown
  7.3s|     1 |     0 |  3847 |     - |   228M |   0 | 128 |  27k|  27k|  23 | 22 |   0 |   0 | 9.194133e+02 | 5.470000e+02 |  68.08%| unknown
  7.4s|     1 |     0 |  3865 |     - |   229M |   0 | 128 |  27k|  27k|  24 | 23 |   0 |   0 | 9.194092e+02 | 5.470000e+02 |  68.08%| unknown
  7.5s|     1 |     0 |  3897 |     - |   229M |   0 | 128 |  27k|  27k|  25 | 24 |   0 |   0 | 9.193983e+02 | 5.470000e+02 |  68.08%| unknown
  7.6s|     1 |     0 |  3912 |     - |   229M |   0 | 128 |  27k|  27k|  26 | 25 |   0 |   0 | 9.193904e+02 | 5.470000e+02 |  68.08%| unknown
d 8.3s|     1 |     0 |  4750 |     - |farkasdi|   0 | 128 |  27k|  27k|   0 | 25 |   0 |   0 | 9.193904e+02 | 5.970000e+02 |  54.00%| unknown
  8.4s|     1 |     0 |  4750 |     - |   229M |   0 | 128 |  27k|  27k|  26 | 25 |   0 |   0 | 9.193904e+02 | 5.970000e+02 |  54.00%| unknown
 time | node  | left  |LP iter|LP it/n|mem/heur|mdpt |vars |cons |rows |cuts |sepa|confs|strbr|  dualbound   | primalbound  |  gap   | compl. 
  8.5s|     1 |     0 |  4767 |     - |   229M |   0 | 128 |  27k|  27k|  27 | 26 |   0 |   0 | 9.193869e+02 | 5.970000e+02 |  54.00%| unknown
 26.1s|     1 |     2 |  4767 |     - |   230M |   0 | 128 |  27k|  27k|  27 | 27 |   0 |  21 | 9.061023e+02 | 5.970000e+02 |  51.78%| unknown
*27.0s|     2 |     1 |  5334 |1420.0 |strongbr|   1 | 128 |  27k|  27k|  27 |  1 |   0 |  22 | 9.061023e+02 | 6.820000e+02 |  32.86%| unknown
*72.1s|     5 |     0 | 11481 |1891.8 |    LP  |   2 | 128 |  23k|  27k|  27 | 10 |  75 | 144 | 6.860000e+02 | 6.860000e+02 |   0.00%|  75.17%

SCIP Status        : problem is solved [optimal solution found]
Solving Time (sec) : 72.05
Solving Nodes      : 5
Primal Bound       : +6.86000000000000e+02 (48 solutions)
Dual Bound         : +6.86000000000000e+02
Gap                : 0.00 %
Solve Status: optimal
Solve Time: 72.06 seconds
